Stopped on time - objective value 0
      0 X0000000               0                       0
      1 X0000001               0                       0
      2 X0000002               0                       0
      3 X0000003               0                       0
      4 X0000004               0                       0
      5 X0000005               0                       0
      6 X0000006               0                       0
      7 X0000007               0                       0
      8 X0000008               0                       0
      9 X0000009               0                       0
     10 X0000010               0                       0
     11 X0000011               0                       0
     12 X0000012               0                       0
     13 X0000013               0                       0
     14 X0000014               0                       0
     15 X0000015               0                       0
     16 X0000016               0                       0
     17 X0000017               0                       0
     18 X0000018               0                       0
     19 X0000019               0                       0
     20 X0000020               0                       0
     21 X0000021               0                       0
     22 X0000022               0                       0
     23 X0000023               0                       0
     24 X0000024               0                       0
     25 X0000025               0                       0
     26 X0000026               0                       0
     27 X0000027               0                       0
     28 X0000028               0                       0
     29 X0000029               0                       0
     30 X0000030               0                       0
     31 X0000031               0                       0
     32 X0000032               0                       0
     33 X0000033               0                       0
     34 X0000034               0                       0
     35 X0000035               0                       0
     36 X0000036               0                       0
     37 X0000037               0                       0
     38 X0000038               0                       0
     39 X0000039               0                       0
     40 X0000040               0                       0
     41 X0000041               0                       0
     42 X0000042               0                       0
     43 X0000043               0                       0
     44 X0000044               0                       0
     45 X0000045               0                       0
     46 X0000046               0                       0
     47 X0000047               0                       0
     48 X0000048               0                       0
     49 X0000049               0                       0
     50 X0000050               0                       0
     51 X0000051               0                       0
     52 X0000052               0                       0
     53 X0000053               0                       0
     54 X0000054               0                       0
     55 X0000055               0                       0
     56 X0000056               0                       0
     57 X0000057               0                       0
     58 X0000058               0                       0
     59 X0000059               0                       0
     60 X0000060               0                       0
     61 X0000061               0                       0
     62 X0000062               0                       0
     63 X0000063               0                       0
     64 X0000064               0                       0
     65 X0000065               0                       0
     66 X0000066               0                       0
     67 X0000067               0                       0
     68 X0000068               0                       0
     69 X0000069               0                       0
     70 X0000070               0                       0
     71 X0000071               0                       0
     72 X0000072               0                       0
     73 X0000073               0                       0
     74 X0000074               0                       0
     75 X0000075               0                       0
     76 X0000076               0                       0
     77 X0000077               0                       0
     78 X0000078               0                       0
     79 X0000079               0                       0
     80 X0000080               0                       0
     81 X0000081               0                       0
     82 X0000082               0                       0
     83 X0000083               0                       0
     84 X0000084               0                       0
     85 X0000085               0                       0
     86 X0000086               0                       0
     87 X0000087               0                       0
     88 X0000088               0                       0
     89 X0000089               0                       0
     90 X0000090               0                       0
     91 X0000091               0                       0
     92 X0000092               0                       0
     93 X0000093               0                       0
     94 X0000094               0                       0
     95 X0000095               0                       0
     96 X0000096               0                       0
     97 X0000097               0                       0
     98 X0000098               0                       0
     99 X0000099               0                       0
    100 X0000100               0                       0
    101 X0000101               0                       0
    102 X0000102               0                       0
    103 X0000103               0                       0
    104 X0000104               0                       0
    105 X0000105               0                       0
    106 X0000106               0                       0
    107 X0000107               0                       0
    108 X0000108               0                       0
    109 X0000109               0                       0
    110 X0000110               0                       0
    111 X0000111               0                       0
    112 X0000112               0                       0
    113 X0000113               0                       0
    114 X0000114               0                       0
    115 X0000115               0                       0
    116 X0000116               0                       0
    117 X0000117               0                       0
    118 X0000118               0                       0
    119 X0000119               0                       0
